1949.75 0
0 16 4 3 5 10 1 2 9 8 6 100 7 21 0
0 12 15 13 85 81 82 86 84 87 50 83 27 0
0 32 46 37 42 34 38 43 54 45 59 0
0 70 72 71 69 25 0
0 61 51 77 78 79 76 80 55 52 0
0 57 62 63 35 49 68 66 65 64 0
0 24 75 74 73 14 22 0
0 96 91 88 94 98 95 89 93 0
0 60 29 44 58 67 30 28 41 39 40 33 31 36 47 48 56 53 0
0 19 20 26 99 17 0
0 11 23 97 90 92 18 0